p tw 55 1501 26 
1 27 
1 28 
1 29 
1 30 
1 31 
2 26 
2 32 
2 33 
2 34 
2 35 
2 36 
3 26 
3 37 
3 38 
3 39 
3 40 
3 41 
4 26 
4 42 
4 43 
4 44 
4 45 
4 46 
5 26 
5 47 
5 48 
5 49 
5 50 
5 51 
6 27 
6 32 
6 37 
6 42 
6 47 
6 52 
7 28 
7 33 
7 38 
7 43 
7 48 
7 52 
8 29 
8 34 
8 39 
8 44 
8 49 
8 52 
9 30 
9 35 
9 40 
9 45 
9 50 
9 52 
10 31 
10 36 
10 41 
10 46 
10 51 
10 52 
11 27 
11 36 
11 38 
11 44 
11 50 
11 53 
12 31 
12 33 
12 40 
12 42 
12 49 
12 53 
13 28 
13 35 
13 39 
13 46 
13 47 
13 53 
14 29 
14 32 
14 41 
14 45 
14 48 
14 53 
15 30 
15 34 
15 37 
15 43 
15 51 
15 53 
16 27 
16 34 
16 40 
16 46 
16 48 
16 54 
17 30 
17 33 
17 41 
17 44 
17 47 
17 54 
18 31 
18 32 
18 39 
18 43 
18 50 
18 54 
19 28 
19 36 
19 37 
19 45 
19 49 
19 54 
20 29 
20 35 
20 38 
20 42 
20 51 
20 54 
21 27 
21 35 
21 41 
21 43 
21 49 
21 55 
22 29 
22 33 
22 37 
22 46 
22 50 
22 55 
23 30 
23 36 
23 39 
23 42 
23 48 
23 55 
24 31 
24 34 
24 38 
24 45 
24 47 
24 55 
25 28 
25 32 
25 40 
25 44 
25 51 
25 55 
